problems/VanDerWaerdenNumbers/VanDerWaerden-models/noch/O2/lingeling/model_3-k3l4n36-solution000001.solution
language Essence 1.3

letting p be
        partition({1, 3, 4, 6, 8, 11, 12, 15, 24, 25, 31, 32, 34, 35, 36}, {2, 13, 14, 16, 19, 21, 26, 27, 29, 33},
                  {5, 7, 9, 10, 17, 18, 20, 22, 23, 28, 30})
